20
587 233 220
78 59 54
120 52 20
100 67 54
91 59 37
112 57 56
88 46 34
108 78 53
100 48 29
89 88 21
90 40 21
89 37 36
62 53 20
116 48 40
64 49 32
63 56 41
76 75 70
100 81 59
102 95 74
66 56 50
58 33 22
thpack7_80